Data path: /scratch/opt/lxu/CFLG/benchmarks/tree_B
Instance: treeB.20.5
Result path: /scratch/opt/lxu/CFLG/results/tree_B
Solver: Gurobi
Time limit: 7200
Formulation: LEFPA
Cover: Large
julia --project=. src/main.jl /scratch/opt/lxu/CFLG/benchmarks/tree_B treeB.20.5 /scratch/opt/lxu/CFLG/results/tree_B Gurobi 7200 LEFPA Large
The latest version of Julia in the `release` channel is 1.11.6+0.x64.linux.gnu. You currently have `1.11.4+0.x64.linux.gnu` installed. Run:

  juliaup update

in your terminal shell to install Julia 1.11.6+0.x64.linux.gnu and update the `release` channel to that version.
/scratch/opt/lxu/CFLG/benchmarks/tree_B Gurobi 7200.0 /scratch/opt/lxu/CFLG/results/tree_B treeB.20.5 LEFPA Large
/scratch/opt/lxu/CFLG/benchmarks/tree_B/treeB.20.5

 read graph
data loaded

problem_graph/original graph: node: 20/20 edge: 24/24 dlt: 2.9394926012946834 break_avg_len: 1.4697463006473417 break_max_len: 1.9731157639793706Vbar/V, Ebar/E(19, 20, 23, 24)
Set parameter TokenServer to value "solice01.zib.de"
Set parameter Threads to value 1
Set parameter OutputFlag to value 1
Gurobi Optimizer version 12.0.1 build v12.0.1rc0 (linux64 - "Debian GNU/Linux 12 (bookworm)")

CPU model: Intel(R) Xeon(R) Gold 5222 CPU @ 3.80GHz, instruction set [SSE2|AVX|AVX2|AVX512]
Thread count: 8 physical cores, 16 logical processors, using up to 1 threads

Non-default parameters:
Threads  1

Optimize a model with 44 rows, 72 columns and 120 nonzeros
Model fingerprint: 0xbf3f1780
Coefficient statistics:
  Matrix range     [1e+00, 1e+00]
  Objective range  [1e+00, 1e+00]
  Bounds range     [1e+00, 1e+00]
  RHS range        [1e+00, 1e+00]
Presolve removed 28 rows and 38 columns
Presolve time: 0.00s
Presolved: 16 rows, 34 columns, 54 nonzeros

Iteration    Objective       Primal Inf.    Dual Inf.      Time
       0    2.2000000e+01   1.000000e+01   0.000000e+00      0s
       7    1.4000000e+01   0.000000e+00   0.000000e+00      0s

Solved in 7 iterations and 0.00 seconds (0.00 work units)
Optimal objective  1.400000000e+01

User-callback calls 86, time in user-callback 0.00 sec
elapsed CPU time: 0.95358 seconds
Set parameter TokenServer to value "solice01.zib.de"
Set parameter Threads to value 1
Set parameter OutputFlag to value 1
Set parameter MIPGap to value 0.0001
Set parameter TimeLimit to value 7199.04642

 more cuts: false 2.9394926012946834 false
is_attach:trueformulation:LEFPA0 24 20

 model loaded

Gurobi Optimizer version 12.0.1 build v12.0.1rc0 (linux64 - "Debian GNU/Linux 12 (bookworm)")

CPU model: Intel(R) Xeon(R) Gold 5222 CPU @ 3.80GHz, instruction set [SSE2|AVX|AVX2|AVX512]
Thread count: 8 physical cores, 16 logical processors, using up to 1 threads

Non-default parameters:
TimeLimit  7199.04642
Threads  1

Optimize a model with 802 rows, 412 columns and 2230 nonzeros
Model fingerprint: 0xf9d23d76
Variable types: 68 continuous, 344 integer (344 binary)
Coefficient statistics:
  Matrix range     [1e-06, 4e+00]
  Objective range  [1e+00, 1e+00]
  Bounds range     [1e+00, 2e+00]
  RHS range        [1e+00, 4e+00]
Found heuristic solution: objective 8.0000000
Presolve removed 230 rows and 78 columns
Presolve time: 0.02s
Presolved: 572 rows, 334 columns, 2915 nonzeros
Variable types: 43 continuous, 291 integer (291 binary)

Root relaxation: objective 4.000000e+00, 283 iterations, 0.00 seconds (0.00 work units)

    Nodes    |    Current Node    |     Objective Bounds      |     Work
 Expl Unexpl |  Obj  Depth IntInf | Incumbent    BestBd   Gap | It/Node Time

     0     0    4.00000    0   11    8.00000    4.00000  50.0%     -    0s
H    0     0                       7.0000000    4.00000  42.9%     -    0s
H    0     0                       6.0000000    4.00000  33.3%     -    0s
H    0     0                       5.0000000    4.00000  20.0%     -    0s
H    0     0                       4.0000000    4.00000  0.00%     -    0s
     0     0    4.00000    0   11    4.00000    4.00000  0.00%     -    0s

Explored 1 nodes (727 simplex iterations) in 0.04 seconds (0.04 work units)
Thread count was 1 (of 16 available processors)

Solution count 5: 4 5 6 ... 8

Optimal solution found (tolerance 1.00e-04)
Best objective 4.000000000000e+00, best bound 4.000000000000e+00, gap 0.0000%

User-callback calls 741, time in user-callback 0.00 sec

 sepatime0 0 0
4.0
Stat(MathOptInterface.OPTIMAL, 4.0, 4.0, 0.0, 0.0, 0.95358, 0.04155993461608887, 1, Main.CFLG.LEFPA, "", #undef)
ERROR: LoadError: SystemError: opening file "/scratch/opt/lxu/CFLG/results/tree_B/treeB.20.5.LEFPA.Large": No such file or directory
Stacktrace:
 [1] systemerror(p::String, errno::Int32; extrainfo::Nothing)
   @ Base ./error.jl:176
 [2] systemerror
   @ ./error.jl:175 [inlined]
 [3] open(fname::String; lock::Bool, read::Nothing, write::Nothing, create::Nothing, truncate::Bool, append::Nothing)
   @ Base ./iostream.jl:295
 [4] open
   @ ./iostream.jl:277 [inlined]
 [5] open(fname::String, mode::String; lock::Bool)
   @ Base ./iostream.jl:358
 [6] open
   @ ./iostream.jl:357 [inlined]
 [7] main(args::Vector{String})
   @ Main /scratch/opt/lxu/CFLG/src/main.jl:51
 [8] top-level scope
   @ /scratch/opt/lxu/CFLG/src/main.jl:57
in expression starting at /scratch/opt/lxu/CFLG/src/main.jl:57
srun: error: htc-cmp483: task 0: Exited with exit code 1
